Version identifier: 12.10.0.0 | 2019-11-26 | 843d4de
CPXPARAM_LPMethod                                4
CPXPARAM_Threads                                 1
CPXPARAM_SolutionType                            2
CPXPARAM_TimeLimit                               10000
Tried aggregator 1 time.
DUAL formed by presolve
LP Presolve eliminated 0 rows and 39601 columns.
Aggregator did 79998 substitutions.
Reduced LP has 40795 rows, 121191 columns, and 281187 nonzeros.
Presolve time = 0.72 sec. (194.32 ticks)
Parallel mode: none, using 1 thread for barrier
Number of nonzeros in lower triangle of A*A' = 239594
Using Nested Dissection ordering
Total time for automatic ordering = 1.05 sec. (417.55 ticks)
Summary statistics for Cholesky factor:
  Rows in Factor            = 40795
  Integer space required    = 238041
  Total non-zeros in factor = 3552444
  Total FP ops to factor    = 702657560
 Itn      Primal Obj        Dual Obj  Prim Inf Upper Inf  Dual Inf Inf Ratio
   0  -5.6038901e+06   7.7967495e+04  5.22e+05  7.92e+05  8.18e+07  1.00e+00
   1  -1.4056250e+04   1.7618338e+03  1.47e+03  2.23e+03  2.30e+05  6.78e-03
   2  -1.0537682e+02   5.9261706e+02  6.83e+01  1.04e+02  4.38e+03  1.21e-01
   3  -7.4382733e+01   4.4120146e+01  2.56e+01  3.89e+01  7.36e+02  6.71e-01
   4   3.2658416e+01   3.4214367e+01  3.76e-01  5.70e-01  7.49e+01  5.41e+00
   5   3.5628413e+01   4.0449259e+01  3.31e-01  5.01e-01  5.51e+01  9.65e+00
   6   3.8435901e+01   4.5969046e+01  2.91e-01  4.42e-01  4.07e+01  1.79e+01
   7   4.2116117e+01   4.7614588e+01  2.40e-01  3.64e-01  3.64e+01  2.13e+01
   8   4.4539254e+01   4.8813507e+01  2.06e-01  3.13e-01  3.32e+01  2.48e+01
   9   4.7633543e+01   5.3060715e+01  1.62e-01  2.45e-01  2.14e+01  6.50e+01
  10   4.8899953e+01   5.5598174e+01  1.45e-01  2.19e-01  1.56e+01  1.50e+02
  11   4.9464535e+01   5.6729888e+01  1.37e-01  2.08e-01  1.33e+01  2.39e+02
  12   5.0266823e+01   5.7460547e+01  1.27e-01  1.93e-01  1.19e+01  3.38e+02
  13   5.0438666e+01   5.8993115e+01  1.25e-01  1.90e-01  9.31e+00  1.33e+03
  14   5.0544149e+01   5.9945334e+01  1.24e-01  1.88e-01  8.33e+00  4.42e+03
  15   5.1492315e+01   6.0204566e+01  1.12e-01  1.70e-01  7.49e+00  1.34e+04
  16   5.1653810e+01   6.0602985e+01  1.10e-01  1.67e-01  7.11e+00  4.67e+04
  17   5.1657287e+01   6.0655664e+01  1.10e-01  1.67e-01  7.42e+00  4.88e+04
  18   5.1658248e+01   6.0765000e+01  1.10e-01  1.67e-01  7.83e+00  4.94e+04
  19   5.2503197e+01   6.0967935e+01  1.01e-01  1.52e-01  6.59e+00  5.76e+04
  20   5.2909334e+01   6.0901055e+01  9.57e-02  1.45e-01  6.08e+00  7.83e+04
  21   5.3007657e+01   6.0886538e+01  9.45e-02  1.43e-01  6.37e+00  8.79e+04
  22   5.3008885e+01   6.0915121e+01  9.45e-02  1.43e-01  6.92e+00  8.78e+04
  23   5.3254176e+01   6.0919364e+01  9.16e-02  1.39e-01  6.31e+00  8.89e+04
  24   5.3286982e+01   6.0924825e+01  9.12e-02  1.38e-01  6.26e+00  9.34e+04
  25   5.3858736e+01   6.0935154e+01  8.44e-02  1.28e-01  5.84e+00  9.26e+04
  26   5.3928185e+01   6.0929730e+01  8.35e-02  1.27e-01  5.91e+00  1.01e+05
  27   5.4415105e+01   6.0929307e+01  7.77e-02  1.18e-01  5.83e+00  1.00e+05
  28   5.4558085e+01   6.0944072e+01  7.60e-02  1.15e-01  5.40e+00  1.09e+05
  29   5.6310493e+01   6.0923894e+01  5.51e-02  8.35e-02  5.14e+00  1.15e+05
  30   5.6446144e+01   6.0965350e+01  5.35e-02  8.11e-02  4.80e+00  1.38e+05
  31   5.6556960e+01   6.0971397e+01  5.22e-02  7.91e-02  4.72e+00  1.40e+05
  32   5.6869341e+01   6.0985087e+01  4.85e-02  7.36e-02  4.47e+00  1.48e+05
  33   5.6943237e+01   6.1018754e+01  4.77e-02  7.23e-02  4.00e+00  1.71e+05
  34   5.6959779e+01   6.1071392e+01  4.75e-02  7.20e-02  3.91e+00  1.73e+05
  35   5.6971497e+01   6.1063174e+01  4.73e-02  7.18e-02  3.80e+00  1.74e+05
  36   5.6973110e+01   6.1073709e+01  4.73e-02  7.18e-02  3.96e+00  1.73e+05
  37   5.6974349e+01   6.1090537e+01  4.73e-02  7.17e-02  3.80e+00  1.74e+05
  38   5.6976030e+01   6.1056043e+01  4.73e-02  7.17e-02  3.59e+00  1.76e+05
  39   5.6981705e+01   6.1066880e+01  4.72e-02  7.16e-02  3.61e+00  1.75e+05
  40   5.6983394e+01   6.1048175e+01  4.72e-02  7.16e-02  3.48e+00  1.76e+05
  41   5.6989939e+01   6.1050290e+01  4.71e-02  7.15e-02  3.50e+00  1.75e+05
  42   5.7000889e+01   6.1043561e+01  4.70e-02  7.13e-02  3.45e+00  1.76e+05
  43   5.7006041e+01   6.1052700e+01  4.69e-02  7.12e-02  3.49e+00  1.76e+05
  44   5.8168427e+01   6.0959911e+01  3.28e-02  4.97e-02  3.34e+00  2.30e+05
  45   5.8258696e+01   6.1024493e+01  3.18e-02  4.82e-02  3.54e+00  2.40e+05
  46   5.8365714e+01   6.1031837e+01  3.06e-02  4.63e-02  3.55e+00  2.47e+05
  47   5.8384212e+01   6.1050837e+01  3.03e-02  4.60e-02  3.59e+00  2.55e+05
  48   5.8386628e+01   6.1056080e+01  3.03e-02  4.60e-02  3.55e+00  2.60e+05
  49   5.8387786e+01   6.1068614e+01  3.03e-02  4.59e-02  3.55e+00  2.62e+05
  50   5.8388995e+01   6.1079981e+01  3.03e-02  4.59e-02  3.58e+00  2.61e+05
  51   5.8408277e+01   6.1082983e+01  3.01e-02  4.56e-02  3.55e+00  2.61e+05
  52   5.8621264e+01   6.1050587e+01  2.76e-02  4.19e-02  3.39e+00  2.96e+05
  53   5.8628325e+01   6.1079522e+01  2.75e-02  4.18e-02  3.40e+00  2.93e+05
  54   5.9012236e+01   6.1080119e+01  2.32e-02  3.52e-02  3.35e+00  2.89e+05
  55   5.9033011e+01   6.1088487e+01  2.30e-02  3.49e-02  2.97e+00  3.19e+05
  56   5.9037441e+01   6.1096660e+01  2.30e-02  3.48e-02  2.88e+00  3.25e+05
  57   5.9098390e+01   6.1095438e+01  2.23e-02  3.38e-02  2.80e+00  3.27e+05
  58   5.9100245e+01   6.1091348e+01  2.23e-02  3.37e-02  2.63e+00  3.39e+05
  59   5.9102618e+01   6.1095681e+01  2.22e-02  3.37e-02  2.55e+00  3.46e+05
  60   5.9104080e+01   6.1093009e+01  2.22e-02  3.37e-02  2.49e+00  3.47e+05
  61   5.9107189e+01   6.1094719e+01  2.22e-02  3.36e-02  2.48e+00  3.47e+05
  62   5.9267184e+01   6.1091509e+01  2.04e-02  3.09e-02  2.39e+00  3.47e+05
  63   5.9267856e+01   6.1089143e+01  2.04e-02  3.09e-02  2.29e+00  3.66e+05
  64   5.9268532e+01   6.1098310e+01  2.04e-02  3.09e-02  2.21e+00  3.68e+05
  65   5.9268548e+01   6.1111433e+01  2.04e-02  3.09e-02  2.11e+00  3.69e+05
  66   5.9269133e+01   6.1125166e+01  2.04e-02  3.09e-02  2.05e+00  3.69e+05
  67   5.9269393e+01   6.1130012e+01  2.04e-02  3.09e-02  1.95e+00  3.69e+05
  68   5.9269542e+01   6.1130910e+01  2.04e-02  3.09e-02  1.95e+00  3.69e+05
  69   5.9281337e+01   6.1133612e+01  2.02e-02  3.07e-02  1.94e+00  3.68e+05
  70   5.9281942e+01   6.1141581e+01  2.02e-02  3.07e-02  1.85e+00  3.68e+05
  71   5.9284832e+01   6.1145602e+01  2.02e-02  3.06e-02  1.83e+00  3.67e+05
  72   5.9285689e+01   6.1146869e+01  2.02e-02  3.06e-02  1.81e+00  3.66e+05
  73   5.9285664e+01   6.1147534e+01  2.02e-02  3.06e-02  1.81e+00  3.66e+05
  74   5.9285716e+01   6.1149975e+01  2.02e-02  3.06e-02  1.74e+00  3.66e+05
  75   5.9286276e+01   6.1153659e+01  2.02e-02  3.06e-02  1.70e+00  3.65e+05
  76   5.9286330e+01   6.1154721e+01  2.02e-02  3.06e-02  1.70e+00  3.65e+05
  77   5.9286598e+01   6.1156721e+01  2.02e-02  3.06e-02  1.64e+00  3.64e+05
  78   5.9286584e+01   6.1158120e+01  2.02e-02  3.06e-02  1.64e+00  3.64e+05
  79   5.9287148e+01   6.1160697e+01  2.02e-02  3.06e-02  1.60e+00  3.63e+05
  80   5.9287832e+01   6.1161665e+01  2.02e-02  3.06e-02  1.56e+00  3.62e+05
  81   5.9287819e+01   6.1163298e+01  2.02e-02  3.06e-02  1.57e+00  3.62e+05
  82   5.9288902e+01   6.1164710e+01  2.02e-02  3.06e-02  1.55e+00  3.61e+05
  83   5.9399847e+01   6.1164784e+01  1.90e-02  2.88e-02  1.53e+00  3.58e+05
  84   5.9399885e+01   6.1163235e+01  1.90e-02  2.88e-02  1.52e+00  3.59e+05
  85   5.9400728e+01   6.1169818e+01  1.90e-02  2.87e-02  1.40e+00  3.63e+05
  86   5.9401039e+01   6.1171709e+01  1.90e-02  2.87e-02  1.25e+00  3.67e+05
  87   5.9401269e+01   6.1172944e+01  1.90e-02  2.87e-02  1.08e+00  3.68e+05
  *    5.9399885e+01   6.1163235e+01  1.90e-02  2.88e-02  1.52e+00  3.59e+05
Barrier time = 19.54 sec. (25792.18 ticks)

Total time on 1 threads = 19.54 sec. (25792.18 ticks)
ERROR: AssertionError: MOI.get(model, MOI.TerminationStatus()) == MOI.INFEASIBLE
Stacktrace:
 [1] get at /home/mtanneau/.julia/packages/CPLEX/Hxpuk/src/MOI/MOI_wrapper.jl:2008 [inlined]
 [2] optimize!(::CPLEX.Optimizer) at /home/mtanneau/.julia/packages/CPLEX/Hxpuk/src/MOI/MOI_wrapper.jl:1911
 [3] optimize! at /home/mtanneau/.julia/packages/MathOptInterface/RmalA/src/Bridges/bridge_optimizer.jl:239 [inlined]
 [4] macro expansion at ./util.jl:234 [inlined]
 [5] run(::MathOptInterface.Bridges.LazyBridgeOptimizer{CPLEX.Optimizer}) at /home/mtanneau/projects/def-alodi/mtanneau/LPBenchmarks/src/LPBenchmark.jl:45
 [6] run_cplex(::String, ::String) at /home/mtanneau/projects/def-alodi/mtanneau/LPBenchmarks/src/cplex.jl:23
 [7] run_cplex(::String) at /home/mtanneau/projects/def-alodi/mtanneau/LPBenchmarks/src/cplex.jl:9
 [8] top-level scope at /home/mtanneau/projects/def-alodi/mtanneau/LPBenchmarks/src/cplex.jl:28
 [9] include(::Module, ::String) at ./Base.jl:377
 [10] exec_options(::Base.JLOptions) at ./client.jl:288
 [11] _start() at ./client.jl:484
Solver name: CPLEX
